p td 60 59
0 1
0 2
0 3
0 9
0 10
0 12
0 16
0 23
0 32
0 51
0 57
1 4
1 7
1 11
1 18
1 19
1 22
1 25
1 27
1 28
1 31
1 46
3 56
4 5
4 45
5 6
5 8
5 15
5 33
5 38
5 39
5 40
5 42
5 44
5 47
5 54
6 20
6 26
6 35
7 58
9 14
9 21
10 13
14 24
14 52
15 17
15 48
16 37
19 55
28 29
28 34
28 36
29 30
32 59
35 41
35 43
44 49
45 53
49 50
